1598081
32 51 101509
51 21 46274
21 30 39447
30 37 91427
37 66 15200
66 6 19183
6 42 52950
42 45 69394
45 33 36286
33 54 20835
54 25 61621
25 65 57991
65 10 13370
10 63 35955
63 5 32039
5 40 10602
40 29 5056
29 24 1249
24 28 9940
28 59 6419
59 22 7498
22 48 4353
48 18 8895
18 4 15574
4 39 3130
39 55 3489
55 31 1427
31 11 4813
11 41 4831
41 2 13084
2 20 17216
20 60 26988
60 23 5437
23 0 15310
0 53 18207
53 46 18520
46 12 9114
12 64 18316
64 19 13332
19 3 4440
3 47 7248
47 1 7938
1 62 25131
62 15 14689
15 58 10880
58 35 8563
35 7 11459
7 14 6874
14 57 6904
57 8 1777
8 16 5356
16 26 1445
26 44 8214
44 67 50028
67 34 19070
34 50 8926
50 38 11004
38 61 8740
61 36 30446
36 52 6554
52 49 48925
49 27 10810
27 43 76431
43 13 62420
13 9 62052
9 17 28652
17 56 27906
56 32 88918
32 32 0
